
Gurobi 11.0.3 (linux64) logging started Sat Nov 23 17:27:26 2024

Set parameter LogFile to value "/home/yihong/Coding/OR_SUC/SUC_results_bigM100000_thread4/case24_ieee_rts_theta0.5_epsilon0.025_gurobi_seed180000_num_gen100_N_WDR150_load_scaling_factor1_exact_T24quadra_cost.txt"
Set parameter TimeLimit to value 3600
Gurobi Optimizer version 11.0.3 build v11.0.3rc0 (linux64 - "Ubuntu 20.04.6 LTS")

CPU model: AMD EPYC 7532 32-Core Processor, instruction set [SSE2|AVX|AVX2]
Thread count: 64 physical cores, 128 logical processors, using up to 4 threads

Optimize a model with 54015 rows, 30061 columns and 917478 nonzeros
Model fingerprint: 0x5493cb28
Model has 2400 quadratic constraints
Variable types: 27511 continuous, 2550 integer (2550 binary)
Coefficient statistics:
  Matrix range     [2e-04, 1e+05]
  QMatrix range    [2e-03, 8e-03]
  QLMatrix range   [3e-01, 6e+01]
  Objective range  [1e+00, 1e+00]
  Bounds range     [1e+00, 1e+00]
  RHS range        [1e+00, 1e+05]
Presolve removed 43804 rows and 12856 columns
Presolve time: 0.35s
Presolved: 10211 rows, 17205 columns, 55006 nonzeros
Presolved model has 2400 quadratic constraint(s)
Variable types: 14713 continuous, 2492 integer (2492 binary)

Root relaxation: objective 7.782092e+04, 8560 iterations, 0.23 seconds (0.32 work units)

    Nodes    |    Current Node    |     Objective Bounds      |     Work
 Expl Unexpl |  Obj  Depth IntInf | Incumbent    BestBd   Gap | It/Node Time

     0     0 77820.9219    0    7          - 77820.9219      -     -    0s
     0     0 404904.900    0  667          - 404904.900      -     -    1s
     0     0 489327.144    0  624          - 489327.144      -     -    1s
     0     0 705563.883    0  573          - 705563.883      -     -    1s
     0     0 705605.351    0  416          - 705605.351      -     -    1s
     0     0 705883.538    0  375          - 705883.538      -     -    1s
     0     0 705887.872    0  375          - 705887.872      -     -    1s
     0     0 705887.872    0  370          - 705887.872      -     -    2s
     0     0 705888.494    0  370          - 705888.494      -     -    2s
     0     2 705888.494    0  370          - 705888.494      -     -    3s
   123   158 706076.498   31  288          - 705901.984      -  73.0    5s
H  589   512                    706974.88218 705905.179  0.15%  26.6    5s
*  589   512             167    706974.88218 705905.179  0.15%  26.6    5s
H  629   300                    706114.67025 705905.897  0.03%  25.6    6s
*  629   300             123    706114.67025 705905.897  0.03%  25.6    6s

Cutting planes:
  Gomory: 7
  Cover: 1
  Implied bound: 388
  MIR: 109
  Flow cover: 83
  RLT: 1
  Relax-and-lift: 73

Explored 677 nodes (40421 simplex iterations) in 6.96 seconds (7.19 work units)
Thread count was 4 (of 128 available processors)

Solution count 3: 706115 706115 706975 

Optimal solution found (tolerance 1.00e-03)
Warning: max constraint violation (5.7740e-07) exceeds tolerance
Best objective 7.061146702486e+05, best bound 7.059060747109e+05, gap 0.0295%
